-47.0 10.0 6.0 3.0 8.0 9.0 6.0 5.0 
10.0 -49.0 10.0 10.0 5.0 8.0 4.0 2.0 
6.0 10.0 -38.0 7.0 3.0 4.0 1.0 7.0 
3.0 10.0 7.0 -37.0 7.0 0.0 9.0 1.0 
8.0 5.0 3.0 7.0 -35.0 0.0 3.0 9.0 
9.0 8.0 4.0 0.0 0.0 -33.0 4.0 8.0 
6.0 4.0 1.0 9.0 3.0 4.0 -30.0 3.0 
5.0 2.0 7.0 1.0 9.0 8.0 3.0 -35.0 

